p cnf 36 102
a 26 28 0
e 1 2 3 4 5 6 7 8 9 10 11 12 13 14 15 16 17 18 19 20 21 22 23 24 25 27 29 30 31 32 33 34 35 36 0
3 1 0
3 -2 0
-1 2 -3 0
3 4 -5 0
-3 -4 -5 0
3 -4 5 0
-3 4 5 0
-7 1 0
-7 -6 0
-1 6 7 0
-9 8 0
-9 2 0
-8 -2 9 0
-11 1 0
-11 -10 0
-1 10 11 0
12 9 0
12 11 0
-9 -11 -12 0
13 -3 0
13 -3 0
3 -13 0
14 -4 0
14 13 0
4 -13 -14 0
9 15 -16 0
-9 -15 -16 0
9 -15 16 0
-9 15 16 0
-17 -16 0
-17 -4 0
16 4 17 0
-18 -14 0
-18 17 0
14 -17 18 0
-8 2 -19 0
8 -2 -19 0
-8 -2 19 0
8 2 19 0
-18 19 -20 0
18 -19 -20 0
-18 -19 20 0
18 19 20 0
-12 -20 -21 0
12 20 -21 0
-12 20 21 0
12 -20 21 0
-22 2 0
-22 -10 0
-2 10 22 0
3 -6 -23 0
-3 6 -23 0
3 6 23 0
-3 -6 23 0
24 -23 0
24 10 0
23 -10 -24 0
-26 -25 0
-26 2 0
25 -2 26 0
24 -26 -27 0
-24 26 -27 0
24 26 27 0
-24 -26 27 0
22 -27 -28 0
-22 27 -28 0
22 27 28 0
-22 -27 28 0
-2 -16 -29 0
2 16 -29 0
-2 16 29 0
2 -16 29 0
-30 29 0
-30 -29 0
-31 -3 0
-31 -11 0
3 11 31 0
-32 -30 0
-32 -31 0
30 31 32 0
-33 28 0
-33 32 0
-28 -32 33 0
-34 -21 0
-34 -33 0
21 33 34 0
35 7 0
35 34 0
-7 -34 -35 0
36 -5 0
36 35 0
5 -35 -36 0
31 18 22 6 -14 0
33 26 -29 27 0
7 5 -25 -2 -12 8 -31 0
-17 -12 -22 0
-24 21 34 29 -31 0
-32 -7 -29 -36 -19 -14 33 0
-14 -15 -2 0
-28 26 29 -20 8 0
-17 30 16 -28 -13 21 0
36 0
